c CNF file corresponding to a (partial) station packing problem.
p cnf 1690 148
1 2 3 4 5 6 7 8 9 10 11 12 13 14 0
-1 -2 0
-1 -3 0
-1 -4 0
-1 -5 0
-1 -6 0
-1 -7 0
-1 -8 0
-1 -9 0
-1 -10 0
-1 -11 0
-1 -12 0
-1 -13 0
-1 -14 0
-2 -3 0
-2 -4 0
-2 -5 0
-2 -6 0
-2 -7 0
-2 -8 0
-2 -9 0
-2 -10 0
-2 -11 0
-2 -12 0
-2 -13 0
-2 -14 0
-3 -4 0
-3 -5 0
-3 -6 0
-3 -7 0
-3 -8 0
-3 -9 0
-3 -10 0
-3 -11 0
-3 -12 0
-3 -13 0
-3 -14 0
-4 -5 0
-4 -6 0
-4 -7 0
-4 -8 0
-4 -9 0
-4 -10 0
-4 -11 0
-4 -12 0
-4 -13 0
-4 -14 0
-5 -6 0
-5 -7 0
-5 -8 0
-5 -9 0
-5 -10 0
-5 -11 0
-5 -12 0
-5 -13 0
-5 -14 0
-6 -7 0
-6 -8 0
-6 -9 0
-6 -10 0
-6 -11 0
-6 -12 0
-6 -13 0
-6 -14 0
-7 -8 0
-7 -9 0
-7 -10 0
-7 -11 0
-7 -12 0
-7 -13 0
-7 -14 0
-8 -9 0
-8 -10 0
-8 -11 0
-8 -12 0
-8 -13 0
-8 -14 0
-9 -10 0
-9 -11 0
-9 -12 0
-9 -13 0
-9 -14 0
-10 -11 0
-10 -12 0
-10 -13 0
-10 -14 0
-11 -12 0
-11 -13 0
-11 -14 0
-12 -13 0
-12 -14 0
-13 -14 0
1680 1681 1682 1683 1684 1685 1686 1687 1688 1689 1690 0
-1680 -1681 0
-1680 -1682 0
-1680 -1683 0
-1680 -1684 0
-1680 -1685 0
-1680 -1686 0
-1680 -1687 0
-1680 -1688 0
-1680 -1689 0
-1680 -1690 0
-1681 -1682 0
-1681 -1683 0
-1681 -1684 0
-1681 -1685 0
-1681 -1686 0
-1681 -1687 0
-1681 -1688 0
-1681 -1689 0
-1681 -1690 0
-1682 -1683 0
-1682 -1684 0
-1682 -1685 0
-1682 -1686 0
-1682 -1687 0
-1682 -1688 0
-1682 -1689 0
-1682 -1690 0
-1683 -1684 0
-1683 -1685 0
-1683 -1686 0
-1683 -1687 0
-1683 -1688 0
-1683 -1689 0
-1683 -1690 0
-1684 -1685 0
-1684 -1686 0
-1684 -1687 0
-1684 -1688 0
-1684 -1689 0
-1684 -1690 0
-1685 -1686 0
-1685 -1687 0
-1685 -1688 0
-1685 -1689 0
-1685 -1690 0
-1686 -1687 0
-1686 -1688 0
-1686 -1689 0
-1686 -1690 0
-1687 -1688 0
-1687 -1689 0
-1687 -1690 0
-1688 -1689 0
-1688 -1690 0
-1689 -1690 0
